p cnf 1038
-16 -324
-17 -327
-18 -330
-19 -333
-20 -336
-21 -339
-22 -342
-23 -345
-24 -348
-25 -351
-26 -354
-27 -357
-28 -360
-29 -363
-30 -366
-31 367
-32 368
-33 369
-34 370
-35 371
-36 372
-37 373
-38 374
-39 -17
-39 -18
17 18 39
-40 -19
-40 -20
19 20 40
-41 -21
-41 -22
21 22 41
-42 -23
-42 -24
23 24 42
-43 -25
-43 -26
25 26 43
-44 -27
-44 -28
27 28 44
-45 -29
-45 -30
29 30 45
-46 -31
-46 -32
31 32 46
-47 -33
-47 -34
33 34 47
-48 -35
-48 -36
35 36 48
-49 -37
-49 -38
37 38 49
-50 39
-50 40
-39 -40 50
-51 41
-51 42
-41 -42 51
-52 43
-52 44
-43 -44 52
-53 45
-53 46
-45 -46 53
-54 47
-54 48
-47 -48 54
-55 50
-55 51
-50 -51 55
-56 52
-56 53
-52 -53 56
-57 49
-57 54
-49 -54 57
-58 55
-58 56
-55 -56 58
-59 57
-59 58
-57 -58 59
-60 -16
-60 17
16 -17 60
-61 16
-61 -17
-16 17 61
-62 -60
-62 -61
60 61 62
-63 16
-63 17
-16 -17 63
-64 -16
-64 -62
16 62 64
-65 16
-65 62
-16 -62 65
-66 -64
-66 -65
64 65 66
-67 16
-67 -62
-16 62 67
-68 -63
-68 -67
63 67 68
-69 -17
-69 18
17 -18 69
-70 17
-70 -18
-17 18 70
-71 -69
-71 -70
69 70 71
-72 17
-72 18
-17 -18 72
-73 68
-73 -71
-68 71 73
-74 -68
-74 71
68 -71 74
-75 -73
-75 -74
73 74 75
-76 -68
-76 -71
68 71 76
-77 -72
-77 -76
72 76 77
-78 -18
-78 19
18 -19 78
-79 18
-79 -19
-18 19 79
-80 -78
-80 -79
78 79 80
-81 18
-81 19
-18 -19 81
-82 77
-82 -80
-77 80 82
-83 -77
-83 80
77 -80 83
-84 -82
-84 -83
82 83 84
-85 -77
-85 -80
77 80 85
-86 -81
-86 -85
81 85 86
-87 -19
-87 20
19 -20 87
-88 19
-88 -20
-19 20 88
-89 -87
-89 -88
87 88 89
-90 19
-90 20
-19 -20 90
-91 86
-91 -89
-86 89 91
-92 -86
-92 89
86 -89 92
-93 -91
-93 -92
91 92 93
-94 -86
-94 -89
86 89 94
-95 -90
-95 -94
90 94 95
-96 -20
-96 21
20 -21 96
-97 20
-97 -21
-20 21 97
-98 -96
-98 -97
96 97 98
-99 20
-99 21
-20 -21 99
-100 95
-100 -98
-95 98 100
-101 -95
-101 98
95 -98 101
-102 -100
-102 -101
100 101 102
-103 -95
-103 -98
95 98 103
-104 -99
-104 -103
99 103 104
-105 -21
-105 22
21 -22 105
-106 21
-106 -22
-21 22 106
-107 -105
-107 -106
105 106 107
-108 21
-108 22
-21 -22 108
-109 104
-109 -107
-104 107 109
-110 -104
-110 107
104 -107 110
-111 -109
-111 -110
109 110 111
-112 -104
-112 -107
104 107 112
-113 -108
-113 -112
108 112 113
-114 -22
-114 23
22 -23 114
-115 22
-115 -23
-22 23 115
-116 -114
-116 -115
114 115 116
-117 22
-117 23
-22 -23 117
-118 113
-118 -116
-113 116 118
-119 -113
-119 116
113 -116 119
-120 -118
-120 -119
118 119 120
-121 -113
-121 -116
113 116 121
-122 -117
-122 -121
117 121 122
-123 -23
-123 24
23 -24 123
-124 23
-124 -24
-23 24 124
-125 -123
-125 -124
123 124 125
-126 23
-126 24
-23 -24 126
-127 122
-127 -125
-122 125 127
-128 -122
-128 125
122 -125 128
-129 -127
-129 -128
127 128 129
-130 -122
-130 -125
122 125 130
-131 -126
-131 -130
126 130 131
-132 -24
-132 25
24 -25 132
-133 24
-133 -25
-24 25 133
-134 -132
-134 -133
132 133 134
-135 24
-135 25
-24 -25 135
-136 131
-136 -134
-131 134 136
-137 -131
-137 134
131 -134 137
-138 -136
-138 -137
136 137 138
-139 -131
-139 -134
131 134 139
-140 -135
-140 -139
135 139 140
-141 -25
-141 26
25 -26 141
-142 25
-142 -26
-25 26 142
-143 -141
-143 -142
141 142 143
-144 25
-144 26
-25 -26 144
-145 140
-145 -143
-140 143 145
-146 -140
-146 143
140 -143 146
-147 -145
-147 -146
145 146 147
-148 -140
-148 -143
140 143 148
-149 -144
-149 -148
144 148 149
-150 -26
-150 27
26 -27 150
-151 26
-151 -27
-26 27 151
-152 -150
-152 -151
150 151 152
-153 26
-153 27
-26 -27 153
-154 149
-154 -152
-149 152 154
-155 -149
-155 152
149 -152 155
-156 -154
-156 -155
154 155 156
-157 -149
-157 -152
149 152 157
-158 -153
-158 -157
153 157 158
-159 -27
-159 28
27 -28 159
-160 27
-160 -28
-27 28 160
-161 -159
-161 -160
159 160 161
-162 27
-162 28
-27 -28 162
-163 158
-163 -161
-158 161 163
-164 -158
-164 161
158 -161 164
-165 -163
-165 -164
163 164 165
-166 -158
-166 -161
158 161 166
-167 -162
-167 -166
162 166 167
-168 -28
-168 29
28 -29 168
-169 28
-169 -29
-28 29 169
-170 -168
-170 -169
168 169 170
-171 28
-171 29
-28 -29 171
-172 167
-172 -170
-167 170 172
-173 -167
-173 170
167 -170 173
-174 -172
-174 -173
172 173 174
-175 -167
-175 -170
167 170 175
-176 -171
-176 -175
171 175 176
-177 -29
-177 30
29 -30 177
-178 29
-178 -30
-29 30 178
-179 -177
-179 -178
177 178 179
-180 29
-180 30
-29 -30 180
-181 176
-181 -179
-176 179 181
-182 -176
-182 179
176 -179 182
-183 -181
-183 -182
181 182 183
-184 -176
-184 -179
176 179 184
-185 -180
-185 -184
180 184 185
-186 -30
-186 31
30 -31 186
-187 30
-187 -31
-30 31 187
-188 -186
-188 -187
186 187 188
-189 30
-189 31
-30 -31 189
-190 185
-190 -188
-185 188 190
-191 -185
-191 188
185 -188 191
-192 -190
-192 -191
190 191 192
-193 -185
-193 -188
185 188 193
-194 -189
-194 -193
189 193 194
-195 -31
-195 32
31 -32 195
-196 31
-196 -32
-31 32 196
-197 -195
-197 -196
195 196 197
-198 31
-198 32
-31 -32 198
-199 194
-199 -197
-194 197 199
-200 -194
-200 197
194 -197 200
-201 -199
-201 -200
199 200 201
-202 -194
-202 -197
194 197 202
-203 -198
-203 -202
198 202 203
-204 -32
-204 33
32 -33 204
-205 32
-205 -33
-32 33 205
-206 -204
-206 -205
204 205 206
-207 32
-207 33
-32 -33 207
-208 203
-208 -206
-203 206 208
-209 -203
-209 206
203 -206 209
-210 -208
-210 -209
208 209 210
-211 -203
-211 -206
203 206 211
-212 -207
-212 -211
207 211 212
-213 -33
-213 34
33 -34 213
-214 33
-214 -34
-33 34 214
-215 -213
-215 -214
213 214 215
-216 33
-216 34
-33 -34 216
-217 212
-217 -215
-212 215 217
-218 -212
-218 215
212 -215 218
-219 -217
-219 -218
217 218 219
-220 -212
-220 -215
212 215 220
-221 -216
-221 -220
216 220 221
-222 -34
-222 35
34 -35 222
-223 34
-223 -35
-34 35 223
-224 -222
-224 -223
222 223 224
-225 34
-225 35
-34 -35 225
-226 221
-226 -224
-221 224 226
-227 -221
-227 224
221 -224 227
-228 -226
-228 -227
226 227 228
-229 -221
-229 -224
221 224 229
-230 -225
-230 -229
225 229 230
-231 -35
-231 36
35 -36 231
-232 35
-232 -36
-35 36 232
-233 -231
-233 -232
231 232 233
-234 35
-234 36
-35 -36 234
-235 230
-235 -233
-230 233 235
-236 -230
-236 233
230 -233 236
-237 -235
-237 -236
235 236 237
-238 -230
-238 -233
230 233 238
-239 -234
-239 -238
234 238 239
-240 -36
-240 37
36 -37 240
-241 36
-241 -37
-36 37 241
-242 -240
-242 -241
240 241 242
-243 36
-243 37
-36 -37 243
-244 239
-244 -242
-239 242 244
-245 -239
-245 242
239 -242 245
-246 -244
-246 -245
244 245 246
-247 -239
-247 -242
239 242 247
-248 -243
-248 -247
243 247 248
-249 -37
-249 38
37 -38 249
-250 37
-250 -38
-37 38 250
-251 -249
-251 -250
249 250 251
-252 37
-252 38
-37 -38 252
-253 248
-253 -251
-248 251 253
-254 -248
-254 251
248 -251 254
-255 -253
-255 -254
253 254 255
-256 -248
-256 -251
248 251 256
-257 -252
-257 -256
252 256 257
-258 16
-258 -66
-16 66 258
-259 -16
-259 18
16 -18 259
-260 -258
-260 -259
258 259 260
-261 16
-261 -75
-16 75 261
-262 -16
-262 19
16 -19 262
-263 -261
-263 -262
261 262 263
-264 16
-264 -84
-16 84 264
-265 -16
-265 20
16 -20 265
-266 -264
-266 -265
264 265 266
-267 16
-267 -93
-16 93 267
-268 -16
-268 21
16 -21 268
-269 -267
-269 -268
267 268 269
-270 16
-270 -102
-16 102 270
-271 -16
-271 22
16 -22 271
-272 -270
-272 -271
270 271 272
-273 16
-273 -111
-16 111 273
-274 -16
-274 23
16 -23 274
-275 -273
-275 -274
273 274 275
-276 16
-276 -120
-16 120 276
-277 -16
-277 24
16 -24 277
-278 -276
-278 -277
276 277 278
-279 16
-279 -129
-16 129 279
-280 -16
-280 25
16 -25 280
-281 -279
-281 -280
279 280 281
-282 16
-282 -138
-16 138 282
-283 -16
-283 26
16 -26 283
-284 -282
-284 -283
282 283 284
-285 16
-285 -147
-16 147 285
-286 -16
-286 27
16 -27 286
-287 -285
-287 -286
285 286 287
-288 16
-288 -156
-16 156 288
-289 -16
-289 28
16 -28 289
-290 -288
-290 -289
288 289 290
-291 16
-291 -165
-16 165 291
-292 -16
-292 29
16 -29 292
-293 -291
-293 -292
291 292 293
-294 16
-294 -174
-16 174 294
-295 -16
-295 30
16 -30 295
-296 -294
-296 -295
294 295 296
-297 16
-297 -183
-16 183 297
-298 -16
-298 31
16 -31 298
-299 -297
-299 -298
297 298 299
-300 16
-300 -192
-16 192 300
-301 -16
-301 32
16 -32 301
-302 -300
-302 -301
300 301 302
-303 16
-303 -201
-16 201 303
-304 -16
-304 33
16 -33 304
-305 -303
-305 -304
303 304 305
-306 16
-306 -210
-16 210 306
-307 -16
-307 34
16 -34 307
-308 -306
-308 -307
306 307 308
-309 16
-309 -219
-16 219 309
-310 -16
-310 35
16 -35 310
-311 -309
-311 -310
309 310 311
-312 16
-312 -228
-16 228 312
-313 -16
-313 36
16 -36 313
-314 -312
-314 -313
312 313 314
-315 16
-315 -237
-16 237 315
-316 -16
-316 37
16 -37 316
-317 -315
-317 -316
315 316 317
-318 16
-318 -246
-16 246 318
-319 -16
-319 38
16 -38 319
-320 -318
-320 -319
318 319 320
-321 16
-321 -255
-16 255 321
-322 1
-322 59
-1 -59 322
-323 -59
-323 60
59 -60 323
-324 -322
-324 -323
322 323 324
-325 2
-325 59
-2 -59 325
-326 -59
-326 -260
59 260 326
-327 -325
-327 -326
325 326 327
-328 3
-328 59
-3 -59 328
-329 -59
-329 -263
59 263 329
-330 -328
-330 -329
328 329 330
-331 4
-331 59
-4 -59 331
-332 -59
-332 -266
59 266 332
-333 -331
-333 -332
331 332 333
-334 5
-334 59
-5 -59 334
-335 -59
-335 -269
59 269 335
-336 -334
-336 -335
334 335 336
-337 6
-337 59
-6 -59 337
-338 -59
-338 -272
59 272 338
-339 -337
-339 -338
337 338 339
-340 7
-340 59
-7 -59 340
-341 -59
-341 -275
59 275 341
-342 -340
-342 -341
340 341 342
-343 8
-343 59
-8 -59 343
-344 -59
-344 -278
59 278 344
-345 -343
-345 -344
343 344 345
-346 9
-346 59
-9 -59 346
-347 -59
-347 -281
59 281 347
-348 -346
-348 -347
346 347 348
-349 10
-349 59
-10 -59 349
-350 -59
-350 -284
59 284 350
-351 -349
-351 -350
349 350 351
-352 11
-352 59
-11 -59 352
-353 -59
-353 -287
59 287 353
-354 -352
-354 -353
352 353 354
-355 12
-355 59
-12 -59 355
-356 -59
-356 -290
59 290 356
-357 -355
-357 -356
355 356 357
-358 13
-358 59
-13 -59 358
-359 -59
-359 -293
59 293 359
-360 -358
-360 -359
358 359 360
-361 14
-361 59
-14 -59 361
-362 -59
-362 -296
59 296 362
-363 -361
-363 -362
361 362 363
-364 15
-364 59
-15 -59 364
-365 -59
-365 -299
59 299 365
-366 -364
-366 -365
364 365 366
-367 -59
-367 -302
59 302 367
-368 -59
-368 -305
59 305 368
-369 -59
-369 -308
59 308 369
-370 -59
-370 -311
59 311 370
-371 -59
-371 -314
59 314 371
-372 -59
-372 -317
59 317 372
-373 -59
-373 -320
59 320 373
-374 -59
-374 321
59 -321 374
-375 -38
-375 257
38 -257 375
-376 16
-376 -375
-16 375 376
376
